benchmarks/VRPTW/TSPTW/solution/n60w60.005.txt.solution
1 8 27 11 30 13 46 3 25 35 49 36 51 39 58 7 40 4 19 54 28 24 21 26 47 38 23 57 37 9 18 32 12 6 42 14 10 41 34 16 33 55 53 15 59 50 44 45 22 48 31 2 60 20 5 52 29 56 61 17 43 
569
